100
1000
199
199
198
197
197
197
196
196
196
194
193
192
192
192
192
191
191
190
190
190
190
189
187
187
187
186
186
186
184
183
183
183
183
183
183
182
182
182
181
181
181
180
180
180
179
179
179
179
178
178
177
177
177
175
175
174
174
173
173
173
173
172
172
172
171
171
171
170
170
168
168
168
168
166
165
164
163
163
162
162
161
160
159
157
157
157
155
155
154
154
154
153
153
153
153
152
150
150
150
150
